<instance format="XCSP3" type="CSP">
  <constraints>
    <cardinality id="c1">
      <list> x1 x2 x3 x4 </list>
      <values> 2 5 10 </values>
      <occurs> 0..1 1..3 2..3 </occurs>
    </cardinality>
    <cardinality id="c2">
      <list> y1 y2 y3 y4 y5 </list>
      <values closed="true"> 0 1 2 3 </values>
      <occurs> z0 z1 z2 z3 </occurs>
    </cardinality>
  </constraints>
</instance>
